Version identifier: 22.1.0.0 | 2022-03-09 | 1a383f8ce
CPXPARAM_Threads                                 1
CPXPARAM_MIP_Strategy_VariableSelect             3
CPXPARAM_TimeLimit                               599.99998527599996
1 of 1 MIP starts provided solutions.
MIP start 'm1' defined initial solution with objective 1.0000.
Tried aggregator 1 time.
MIP Presolve eliminated 17 rows and 0 columns.
MIP Presolve modified 160 coefficients.
Reduced MIP has 1809 rows, 7800 columns, and 147896 nonzeros.
Reduced MIP has 7800 binaries, 0 generals, 0 SOSs, and 0 indicators.
Presolve time = 0.13 sec. (185.47 ticks)
Probing time = 0.03 sec. (29.56 ticks)
Tried aggregator 1 time.
Detecting symmetries...
Reduced MIP has 1809 rows, 7800 columns, and 147896 nonzeros.
Reduced MIP has 7800 binaries, 0 generals, 0 SOSs, and 0 indicators.
Presolve time = 0.10 sec. (141.20 ticks)
Probing time = 0.03 sec. (29.56 ticks)
Clique table members: 374.
MIP emphasis: balance optimality and feasibility.
MIP search method: dynamic search.
Parallel mode: none, using 1 thread.
Root relaxation solution time = 0.12 sec. (136.73 ticks)

        Nodes                                         Cuts/
   Node  Left     Objective  IInf  Best Integer    Best Bound    ItCnt     Gap

*     0+    0                            1.0000    45150.0000              --- 
      0     0      300.0000    84        1.0000      300.0000     1158     --- 
*     0+    0                          300.0000      300.0000             0.00%
      0     0        cutoff            300.0000      300.0000     1158    0.00%
Elapsed time = 0.66 sec. (715.47 ticks, tree = 0.01 MB, solutions = 2)

Root node processing (before b&c):
  Real time             =    0.66 sec. (716.25 ticks)
Sequential b&c:
  Real time             =    0.00 sec. (0.00 ticks)
                          ------------
Total (root+branch&cut) =    0.66 sec. (716.25 ticks)
Primal:	300
Dual:	300
Status:	Optimal
Time:	0.68
Sequence:
	12
	1
	24
	22
	12
	1
	15
	21
	8
	9
	1
	11
	6
	6
	10
	5
	12
	6
	21
	6
	21
	0
	3
	9
	7
	9
	0
	4
	10
	22
	21
	23
	3
	7
	21
	9
	4
	20
	21
	10
	20
	20
	20
	17
	9
	15
	13
	7
	8
	21
	12
	7
	20
	24
	13
	8
	21
	23
	22
	12
	6
	23
	6
	23
	3
	17
	3
	5
	24
	3
	12
	11
	20
	16
	11
	7
	3
	3
	16
	3
	13
	22
	5
	3
	0
	19
	16
	20
	14
	16
	6
	5
	16
	13
	1
	1
	3
	5
	5
	20
	13
	0
	3
	0
	16
	1
	21
	3
	13
	6
	3
	5
	0
	6
	6
	6
	20
	6
	6
	4
	6
	16
	16
	16
	6
	16
	16
	6
	6
	1
	16
	8
	1
	23
	15
	13
	20
	9
	9
	9
	5
	12
	24
	24
	16
	3
	16
	16
	16
	20
	16
	16
	16
	15
	15
	6
	6
	16
	6
	6
	4
	0
	4
	9
	9
	14
	0
	15
	14
	13
	4
	4
	4
	4
	17
	22
	22
	16
	22
	12
	12
	6
	12
	13
	12
	21
	13
	13
	24
	2
	15
	8
	0
	3
	14
	0
	3
	0
	18
	8
	0
	15
	1
	8
	0
	21
	12
	20
	17
	4
	12
	18
	18
	6
	0
	4
	12
	17
	12
	3
	21
	1
	22
	17
	21
	20
	23
	0
	3
	3
	1
	6
	21
	13
	1
	20
	10
	20
	17
	3
	0
	22
	3
	3
	17
	3
	3
	5
	0
	4
	0
	3
	0
	0
	3
	20
	10
	5
	4
	4
	14
	1
	6
	8
	6
	0
	21
	9
	9
	9
	17
	20
	10
	4
	10
	6
	2
	2
	6
	9
	8
	11
	11
	3
	6
	11
	13
	14
	5
	6
	6
	14
	18
	6
	8
	2
	11
	4
	5
	20
